MAE-6010 Class; Finite Element Analysis of: 
Test All File 
 
Input Data Summary 
Number of Nodes    =       13 
Number of Elements =        9 
Constrained Degrees of Freedom 
   Node Number     Direction 
        2              2 
        5              1 
        1              1 
        1              2 
Number of Loaded Nodes =     1 
    Node ID   X Force        Y Force 
       7           10             10 
Accel. due to Gravity in the X =     9810 
Accel. due to Gravity in the Y =        0 
Default Temperature =            50 

 Node Displacements 
  Node 
   ID          u            v        theta Z 
    1            0            0            0 
    2  -0.00029261    0.0017069            0 
    3    -0.011146     0.012571     0.036787 
    4   -0.0034669     0.025666            0 
    5            0   0.00078854            0 
    6    0.0045409    0.0051632    -0.016652 
    7      -2.3937       2.4009     0.087597 
    8     -0.00465       2.6398     0.087597 
    9   -0.0035975    0.0054816    0.0070875 
   10    -0.084143     -0.07664            0 
   11     -0.23655      0.10535            0 
   12     -0.36833     -0.11927            0 
   13     -0.34881      0.13807    0.0070875 

Forces and Stresses in ROD Elements 
 Elem. 
  ID       Force       Stress 
    6  -2.8028e+05      -23357 

Forces at the Ends of Bar Elements in the Global Coordinate System 
 Elem. Node 
  ID    ID        Fx          Fy          Mz 
   4     6 -5.1213e+05  1.7064e+05  2.3839e-11 
   4     3   5.121e+05 -1.7064e+05  1.5363e+07 
   5     3  6.7989e+05     -16.118 -1.5363e+07 
   5     7 -6.7993e+05      16.118 -5.0343e+06 

Stresses at the Ends of Bar Elements in the Element Coordinate System 
at Distances H1 and H2 from the Neutral Axis 
 Elem. Node 
  ID   ID        H1           H2 
   4    6      -17064       -17064 
   4    3 -1.8607e+06   1.8266e+06 
   5    3 -1.8917e+06   1.7955e+06 
   5    7  5.5604e+05  -6.5219e+05 

Stresses in Constant Strain Triangle Elements in the Global Coordinate System 
 Elem.     Sigma       Sigma       Sigma       Sigma       Sigma    Von Mises
  ID        xx          yy          xy           1           2        Stress
   2    2.94e+04       -8538  -1.422e+04   3.414e+04  -1.328e+04   4.237e+04
   3  -1.465e+05  -1.052e+05   1.331e+05        8775  -2.605e+05    2.65e+05

Stresses in Quadrilateral QM6 Elements in the Global Coordinate System 
Elem.           Sigma      Sigma      Sigma      Sigma      Sigma   Von Mises 
 ID  node        xx         yy         xy          1          2      Stress 
  1    1    -4.38e+04  1.001e+05  -1.97e+04  1.028e+05 -4.645e+04  1.323e+05
  1    4   -1.402e+05  1.179e+05 -1.642e+04   1.19e+05 -1.412e+05  2.256e+05
  1    3   -1.628e+05       -648 -6.169e+04  2.015e+04 -1.836e+05  1.945e+05
  1    2   -5.613e+04  1.715e+04 -5.841e+04  4.947e+04 -8.845e+04   1.21e+05
  1 Center -9.871e+04  5.729e+04 -3.764e+04   6.59e+04 -1.073e+05  1.514e+05

Averaged Nodal Stresses in Q4 or QM6 Elements in the Global Coordinate System 
Node     Sigma      Sigma      Sigma      Sigma      Sigma   Von Mises 
 ID       xx         yy         xy          1          2      Stress 
  1  -4.38e+04  1.001e+05  -1.97e+04  1.028e+05 -4.645e+04  1.323e+05
  2 -5.613e+04  1.715e+04 -5.841e+04  4.947e+04 -8.845e+04   1.21e+05
  3 -1.628e+05       -648 -6.169e+04  2.015e+04 -1.836e+05  1.945e+05
  4 -1.402e+05  1.179e+05 -1.642e+04   1.19e+05 -1.412e+05  2.256e+05
  5        NaN        NaN        NaN        NaN        NaN        NaN
  6        NaN        NaN        NaN        NaN        NaN        NaN
  7        NaN        NaN        NaN        NaN        NaN        NaN
  8        NaN        NaN        NaN        NaN        NaN        NaN
  9        NaN        NaN        NaN        NaN        NaN        NaN
 10        NaN        NaN        NaN        NaN        NaN        NaN
 11        NaN        NaN        NaN        NaN        NaN        NaN
 12        NaN        NaN        NaN        NaN        NaN        NaN
 13        NaN        NaN        NaN        NaN        NaN        NaN

Stresses in Quadratic Quadrilateral (Q8) Elements 
in the Global Coordinate System 
Elem.           Sigma      Sigma      Sigma      Sigma      Sigma   Von Mises 
 ID  node        xx         yy         xy          1          2      Stress 
  7    5   -1.461e+05 -5.364e+05  2.875e+05       6206 -6.887e+05  6.919e+05
  7    3   -1.306e+05 -5.912e+04  2.451e+05  1.528e+05 -3.425e+05  4.393e+05
  7   11     3.15e+06  3.238e+06 -3.109e+06  6.304e+06  8.427e+04  6.262e+06
  7   12   -4.181e+05 -2.608e+05  6.256e+04 -2.389e+05 -4.399e+05  3.815e+05
  7 Center  6.138e+05  5.955e+05 -6.286e+05  1.233e+06 -2.402e+04  1.245e+06

Reaction Forces in the Displacement Coordinate System 

  Node 
   ID    Direction    Force
    1       X        3.0588e+05 
    1       Y        1.0861e+06 
    2       Y        -1.536e+06 
    5       X        2.7006e+06 
